100
32
16
26
22
10
14
5
4
3
17
26
5
13
30
4
27
1
17
11
2
27
27
17
21
32
1
11
14
19
24
7
12
14
5
4
20
25
15
14
16
11
32
8
19
1
20
30
1
10
2
10
13
29
6
10
13
1
15
15
14
6
23
16
2
4
29
17
13
18
4
30
14
13
18
19
21
17
10
6
8
5
23
25
3
1
14
26
7
17
24
25
32
5
30
6
32
4
4
2
11
16